unsat
(define-fun SC ((s (_ BitVec 4)) (t (_ BitVec 4))) Bool (bvult #b0000 (bvudiv s t)))
6.43user 0.01system 0:06.44elapsed 99%CPU (0avgtext+0avgdata 41236maxresident)k
0inputs+8outputs (0major+4889minor)pagefaults 0swaps
